15
1 0 4
2 0 14
2 1 11
3 0 8
3 1 3
3 2 12
4 0 9
4 1 3
4 2 4
4 3 2
5 0 1
5 1 10
5 2 2
5 3 2
5 4 3
6 0 10
6 1 10
6 2 3
6 3 9
6 4 3
6 5 10
7 0 10
7 1 11
7 2 3
7 3 2
7 4 2
7 5 8
7 6 2
8 0 6
8 1 11
8 2 2
8 3 7
8 4 12
8 5 5
8 6 9
8 7 6
9 0 4
9 1 5
9 2 7
9 3 4
9 4 7
9 5 10
9 6 1
9 7 13
9 8 12
10 0 1
10 1 1
10 2 5
10 3 11
10 4 12
10 5 5
10 6 11
10 7 5
10 8 10
10 9 2
11 0 6
11 1 14
11 2 3
11 3 11
11 4 12
11 5 13
11 6 7
11 7 14
11 8 12
11 9 2
11 10 8
12 0 11
12 1 2
12 2 3
12 3 2
12 4 2
12 5 14
12 6 12
12 7 3
12 8 4
12 9 2
12 10 5
12 11 3
13 0 9
13 1 4
13 2 2
13 3 12
13 4 14
13 5 7
13 6 5
13 7 8
13 8 12
13 9 9
13 10 11
13 11 8
13 12 10
14 0 10
14 1 10
14 2 6
14 3 11
14 4 9
14 5 11
14 6 2
14 7 12
14 8 2
14 9 8
14 10 6
14 11 13
14 12 9
14 13 4
